c SAT Generator for power-law distributed variable frequencies
c -g u -v 20 -c 91 -k 3 -p 2.750000 -b 3.200000 -f /home/schmidt/Devel/ni-kop-sat/data/ensemble/ruf20-91/ruf20-91-784 -u 1 -U 1 -s 522609669
p cnf 20 91
4 8 -11 0
-3 -9 16 0
3 -4 -9 0
-2 -6 -8 0
-15 -19 20 0
6 -10 18 0
6 15 18 0
17 -18 -20 0
-2 -5 -12 0
1 10 17 0
-7 -10 13 0
9 13 17 0
-1 -5 -9 0
7 -16 -17 0
2 -7 13 0
3 18 -20 0
-11 -13 -20 0
-4 15 -17 0
2 -6 -15 0
-1 11 -17 0
1 -12 -20 0
7 9 -15 0
5 9 15 0
-4 -15 -20 0
4 9 13 0
2 6 19 0
-10 -16 -19 0
-5 -9 19 0
4 -7 -18 0
-4 6 13 0
10 18 20 0
9 16 20 0
2 12 20 0
2 -14 -20 0
-5 6 -11 0
-5 7 9 0
-4 -8 10 0
-12 -13 14 0
-12 -15 -19 0
-7 -9 -16 0
8 13 15 0
-4 -6 -19 0
-11 14 18 0
12 13 19 0
-8 10 -19 0
-5 -6 12 0
13 -14 -19 0
5 7 -10 0
9 11 -14 0
1 -10 18 0
-2 -3 20 0
-6 -18 -19 0
-1 3 16 0
2 -16 -18 0
2 10 -13 0
7 -16 17 0
9 -10 -13 0
-7 -13 14 0
4 16 20 0
8 -13 -15 0
-1 13 20 0
-1 -5 -20 0
4 -9 -18 0
4 8 -17 0
-4 11 14 0
-6 -14 15 0
-4 6 -16 0
-11 -19 20 0
-10 -17 -20 0
-1 -8 9 0
-10 -19 -20 0
-7 16 -20 0
3 -4 7 0
7 -15 -16 0
11 12 -13 0
1 -5 8 0
-9 -15 16 0
9 13 15 0
6 -15 16 0
-18 -19 20 0
-4 12 18 0
1 10 -19 0
-10 -14 18 0
5 -8 9 0
-4 -5 -11 0
-3 9 14 0
-2 7 -10 0
4 -16 -17 0
-14 -15 -18 0
2 -10 -16 0
7 14 17 0
